NAME : portcgen-25-21
COMMENT : portcgen N=25, seed=21
TYPE : TSP
DIMENSION : 25
EDGE_WEIGHT_TYPE : EUC_2D
NODE_COORD_SECTION
1 -135161 98753
2 -135021 191035
3 30779 182843
4 10088 134461
5 58419 -68849
6 -224464 301333
7 133649 -48128
8 -131343 136015
9 -52044 44898
10 139516 253123
11 141801 -422074
12 83374 -62349
13 177475 -496459
14 243522 -138081
15 536754 268937
16 318064 -108572
17 299399 18898
18 -311865 -71258
19 78782 -2168
20 -234812 80948
21 -75082 -64604
22 302510 216221
23 -89602 -332259
24 170971 -54487
25 177730 -248390
